148 132 200 116 196 131 86 16 182 30 43 84 37 87 172 17 24 181 195 170 52 125 68 1 36 
164 99 65 76 18 187 10 162 189 193 13 145 50 72 179 49 82 190 101 44 147 14 109 
63 136 94 39 166 57 113 110 33 27 177 133 150 31 20 71 146 106 55 4 85 88 165 152 
38 64 138 143 60 142 2 29 61 199 192 73 32 151 19 97 186 168 91 156 11 105 111 
67 174 198 188 173 46 167 8 115 169 134 128 48 69 53 92 122 141 74 112 95 129 159 21 114 
184 183 98 77 40 12 102 47 155 62 127 191 185 194 120 117 75 176 34 
41 118 59 178 3 104 22 89 15 139 96 56 161 130 163 154 7 79 23 66 
153 137 107 126 171 6 108 175 9 25 123 180 158 54 51 58 
28 119 70 26 140 35 42 144 78 45 103 90 5 81 100 80 135 160 121 124 197 83 149 157 
93 

